NAME : 29.78348.tour
COMMENT : Length = 78348
COMMENT : Found by LKH-3 [Keld Helsgaun] Thu Jun 19 18:16:54 2025
TYPE : TOUR
DIMENSION : 100
TOUR_SECTION
1
13
27
67
33
83
14
42
53
74
72
44
63
11
47
86
100
62
77
97
18
76
40
35
91
25
66
8
17
68
15
45
96
78
52
99
59
82
10
32
41
19
60
16
46
75
69
81
39
58
49
57
94
80
9
4
43
23
95
89
65
90
64
79
38
92
2
70
29
31
50
36
37
54
48
21
22
24
28
71
34
56
6
26
84
30
61
5
73
93
55
20
51
88
12
7
3
98
87
85
-1
EOF
